50
4325

374 267
716 492
461 366
294 994
32 581
318 729
835 359
254 628
820 440
628 222
525 288
280 399
883 633
105 544
799 244
37 472
946 484
410 503
333 18
797 788
536 143
110 554
668 692
483 270
570 664
860 555
6 72
336 778
379 395
770 242
961 604
352 455
2 595
429 523
902 78
110 98
712 230
165 633
985 660
246 692
267 995
218 78
845 677
914 482
486 884
163 940
39 974
426 297
398 324
606 59
